p tw 155 32551 2 
1 3 
1 4 
1 5 
1 6 
1 7 
1 8 
1 9 
1 10 
1 11 
1 12 
1 13 
1 14 
1 15 
1 16 
1 17 
1 18 
1 19 
1 20 
1 21 
1 22 
1 23 
1 24 
1 25 
1 26 
1 27 
1 28 
1 29 
1 37 
1 43 
1 70 
1 81 
1 91 
1 98 
1 105 
1 111 
1 116 
1 122 
1 129 
1 130 
1 131 
1 132 
2 3 
2 4 
2 5 
2 6 
2 7 
2 8 
2 9 
2 10 
2 11 
2 12 
2 13 
2 14 
2 15 
2 16 
2 17 
2 30 
2 31 
2 32 
2 33 
2 34 
2 35 
2 36 
2 37 
2 38 
2 39 
2 40 
2 41 
2 42 
2 62 
2 73 
2 84 
2 94 
2 101 
2 106 
2 113 
2 116 
2 124 
2 135 
2 138 
2 147 
2 148 
3 4 
3 5 
3 6 
3 7 
3 8 
3 9 
3 10 
3 11 
3 12 
3 13 
3 14 
3 15 
3 17 
3 26 
3 30 
3 39 
3 43 
3 44 
3 45 
3 46 
3 47 
3 48 
3 49 
3 50 
3 51 
3 52 
3 53 
3 54 
3 62 
3 71 
3 79 
3 90 
3 96 
3 123 
3 129 
3 133 
3 137 
3 142 
3 143 
3 144 
4 5 
4 6 
4 7 
4 8 
4 9 
4 10 
4 11 
4 12 
4 13 
4 14 
4 15 
4 18 
4 20 
4 31 
4 33 
4 43 
4 45 
4 55 
4 56 
4 57 
4 58 
4 59 
4 60 
4 61 
4 62 
4 63 
4 64 
4 65 
4 66 
4 76 
4 87 
4 88 
4 89 
4 90 
4 91 
4 92 
4 93 
4 94 
4 95 
5 6 
5 7 
5 8 
5 9 
5 10 
5 11 
5 12 
5 13 
5 14 
5 15 
5 19 
5 22 
5 32 
5 42 
5 44 
5 54 
5 55 
5 64 
5 66 
5 67 
5 68 
5 69 
5 70 
5 71 
5 72 
5 73 
5 74 
5 75 
5 86 
5 95 
5 101 
5 104 
5 128 
5 131 
5 133 
5 141 
5 145 
5 153 
6 7 
6 8 
6 9 
6 10 
6 11 
6 12 
6 13 
6 14 
6 15 
6 19 
6 20 
6 30 
6 39 
6 52 
6 56 
6 60 
6 70 
6 76 
6 77 
6 78 
6 79 
6 80 
6 81 
6 82 
6 83 
6 84 
6 85 
6 86 
6 100 
6 107 
6 114 
6 119 
6 125 
6 145 
6 147 
6 149 
6 150 
7 8 
7 9 
7 10 
7 11 
7 12 
7 13 
7 14 
7 15 
7 16 
7 21 
7 38 
7 46 
7 51 
7 57 
7 63 
7 67 
7 72 
7 77 
7 83 
7 87 
7 93 
7 96 
7 97 
7 98 
7 99 
7 100 
7 101 
7 102 
7 103 
7 111 
7 118 
7 124 
7 134 
7 142 
7 145 
7 146 
8 9 
8 10 
8 11 
8 12 
8 13 
8 14 
8 15 
8 21 
8 25 
8 34 
8 36 
8 47 
8 48 
8 55 
8 58 
8 68 
8 78 
8 85 
8 88 
8 93 
8 96 
8 98 
8 104 
8 105 
8 106 
8 107 
8 108 
8 109 
8 128 
8 140 
8 143 
8 147 
8 152 
8 154 
8 155 
9 10 
9 11 
9 12 
9 13 
9 14 
9 15 
9 22 
9 28 
9 32 
9 35 
9 48 
9 50 
9 57 
9 58 
9 69 
9 76 
9 79 
9 89 
9 97 
9 108 
9 110 
9 111 
9 112 
9 113 
9 114 
9 115 
9 118 
9 127 
9 132 
9 135 
9 144 
9 149 
9 153 
9 154 
10 11 
10 12 
10 13 
10 14 
10 15 
10 23 
10 28 
10 31 
10 36 
10 44 
10 47 
10 59 
10 71 
10 80 
10 84 
10 90 
10 95 
10 97 
10 102 
10 104 
10 114 
10 116 
10 117 
10 118 
10 119 
10 120 
10 121 
10 126 
10 130 
10 136 
10 139 
10 146 
10 152 
11 12 
11 13 
11 14 
11 15 
11 24 
11 26 
11 33 
11 41 
11 49 
11 54 
11 59 
11 61 
11 67 
11 75 
11 78 
11 80 
11 94 
11 103 
11 105 
11 110 
11 112 
11 122 
11 123 
11 124 
11 125 
11 126 
11 127 
11 128 
11 146 
11 150 
11 151 
11 154 
12 13 
12 14 
12 15 
12 18 
12 25 
12 37 
12 40 
12 49 
12 52 
12 60 
12 68 
12 75 
12 82 
12 86 
12 91 
12 92 
12 99 
12 102 
12 109 
12 112 
12 115 
12 117 
12 121 
12 127 
12 133 
12 134 
12 135 
12 136 
12 140 
12 142 
12 148 
13 14 
13 15 
13 23 
13 27 
13 35 
13 38 
13 45 
13 50 
13 61 
13 64 
13 69 
13 74 
13 77 
13 82 
13 88 
13 100 
13 108 
13 120 
13 122 
13 125 
13 130 
13 134 
13 137 
13 138 
13 139 
13 140 
13 141 
13 143 
13 148 
13 151 
14 15 
14 24 
14 29 
14 34 
14 40 
14 46 
14 53 
14 63 
14 65 
14 66 
14 73 
14 81 
14 83 
14 87 
14 106 
14 110 
14 115 
14 117 
14 120 
14 131 
14 136 
14 137 
14 141 
14 144 
14 149 
14 150 
14 151 
14 152 
14 155 
15 27 
15 29 
15 41 
15 42 
15 51 
15 53 
15 56 
15 65 
15 72 
15 74 
15 85 
15 89 
15 92 
15 99 
15 103 
15 107 
15 109 
15 113 
15 119 
15 121 
15 123 
15 126 
15 129 
15 132 
15 138 
15 139 
15 153 
15 155 
16 17 
16 18 
16 19 
16 20 
16 21 
16 22 
16 23 
16 24 
16 25 
16 26 
16 27 
16 28 
16 29 
16 30 
16 31 
16 32 
16 33 
16 34 
16 35 
16 36 
16 37 
16 38 
16 39 
16 40 
16 41 
16 42 
16 46 
16 57 
16 67 
16 77 
16 87 
16 96 
16 97 
16 98 
16 99 
16 100 
16 101 
16 102 
16 103 
17 18 
17 19 
17 20 
17 21 
17 22 
17 23 
17 24 
17 25 
17 26 
17 27 
17 28 
17 29 
17 30 
17 43 
17 44 
17 45 
17 46 
17 47 
17 48 
17 49 
17 50 
17 51 
17 52 
17 53 
17 54 
17 62 
17 73 
17 84 
17 94 
17 101 
17 106 
17 113 
17 116 
17 124 
17 135 
17 138 
17 147 
17 148 
18 19 
18 20 
18 21 
18 22 
18 23 
18 24 
18 25 
18 26 
18 27 
18 28 
18 29 
18 31 
18 40 
18 43 
18 52 
18 55 
18 56 
18 57 
18 58 
18 59 
18 60 
18 61 
18 62 
18 63 
18 64 
18 65 
18 75 
18 86 
18 91 
18 102 
18 109 
18 115 
18 121 
18 127 
18 140 
18 142 
18 148 
19 20 
19 21 
19 22 
19 23 
19 24 
19 25 
19 26 
19 27 
19 28 
19 29 
19 30 
19 32 
19 44 
19 55 
19 56 
19 66 
19 67 
19 68 
19 69 
19 70 
19 71 
19 72 
19 73 
19 74 
19 75 
19 76 
19 77 
19 78 
19 79 
19 80 
19 81 
19 82 
19 83 
19 84 
19 85 
19 86 
20 21 
20 22 
20 23 
20 24 
20 25 
20 26 
20 27 
20 28 
20 29 
20 33 
20 39 
20 45 
20 52 
20 60 
20 66 
20 70 
20 76 
20 87 
20 88 
20 89 
20 90 
20 91 
20 92 
20 93 
20 94 
20 95 
20 100 
20 107 
20 114 
20 119 
20 125 
20 145 
20 147 
20 149 
20 150 
21 22 
21 23 
21 24 
21 25 
21 26 
21 27 
21 28 
21 29 
21 34 
21 38 
21 47 
21 51 
21 58 
21 63 
21 68 
21 72 
21 78 
21 83 
21 88 
21 93 
21 96 
21 104 
21 105 
21 106 
21 107 
21 108 
21 109 
21 111 
21 118 
21 124 
21 134 
21 142 
21 145 
21 146 
22 23 
22 24 
22 25 
22 26 
22 27 
22 28 
22 29 
22 35 
22 42 
22 48 
22 54 
22 58 
22 64 
22 69 
22 79 
22 86 
22 89 
22 95 
22 97 
22 101 
22 104 
22 110 
22 111 
22 112 
22 113 
22 114 
22 115 
22 128 
22 131 
22 133 
22 141 
22 145 
22 153 
23 24 
23 25 
23 26 
23 27 
23 28 
23 29 
23 36 
23 38 
23 44 
23 50 
23 59 
23 61 
23 69 
23 80 
23 82 
23 88 
23 90 
23 97 
23 100 
23 104 
23 116 
23 117 
23 118 
23 119 
23 120 
23 121 
23 122 
23 137 
23 138 
23 139 
23 140 
23 141 
24 25 
24 26 
24 27 
24 28 
24 29 
24 33 
24 34 
24 49 
24 53 
24 59 
24 63 
24 67 
24 73 
24 78 
24 81 
24 87 
24 110 
24 115 
24 120 
24 122 
24 123 
24 124 
24 125 
24 126 
24 127 
24 128 
24 136 
24 141 
24 144 
24 150 
24 155 
25 26 
25 27 
25 28 
25 29 
25 36 
25 37 
25 48 
25 49 
25 55 
25 60 
25 68 
25 82 
25 85 
25 92 
25 93 
25 98 
25 99 
25 112 
25 117 
25 128 
25 133 
25 134 
25 135 
25 136 
25 140 
25 143 
25 147 
25 152 
25 154 
25 155 
26 27 
26 28 
26 29 
26 39 
26 41 
26 54 
26 61 
26 62 
26 71 
26 75 
26 79 
26 80 
26 90 
26 94 
26 96 
26 103 
26 105 
26 112 
26 123 
26 129 
26 133 
26 137 
26 142 
26 143 
26 144 
26 146 
26 150 
26 151 
26 154 
27 28 
27 29 
27 35 
27 41 
27 45 
27 53 
27 64 
27 65 
27 72 
27 74 
27 77 
27 85 
27 89 
27 99 
27 108 
27 109 
27 119 
27 120 
27 125 
27 126 
27 129 
27 130 
27 134 
27 138 
27 143 
27 148 
27 151 
27 153 
28 29 
28 31 
28 32 
28 47 
28 50 
28 57 
28 71 
28 76 
28 84 
28 95 
28 102 
28 108 
28 114 
28 118 
28 126 
28 127 
28 130 
28 132 
28 135 
28 136 
28 139 
28 144 
28 146 
28 149 
28 152 
28 153 
28 154 
29 40 
29 42 
29 46 
29 51 
29 56 
29 65 
29 66 
29 74 
29 83 
29 92 
29 103 
29 106 
29 107 
29 110 
29 113 
29 117 
29 121 
29 123 
29 131 
29 132 
29 137 
29 139 
29 149 
29 151 
29 152 
29 155 
30 31 
30 32 
30 33 
30 34 
30 35 
30 36 
30 37 
30 38 
30 39 
30 40 
30 41 
30 42 
30 43 
30 44 
30 45 
30 46 
30 47 
30 48 
30 49 
30 50 
30 51 
30 52 
30 53 
30 54 
30 56 
30 76 
30 77 
30 78 
30 79 
30 80 
30 81 
30 82 
30 83 
30 84 
30 85 
30 86 
31 32 
31 33 
31 34 
31 35 
31 36 
31 37 
31 38 
31 39 
31 40 
31 41 
31 42 
31 43 
31 47 
31 55 
31 56 
31 57 
31 58 
31 59 
31 60 
31 61 
31 62 
31 63 
31 64 
31 65 
31 71 
31 84 
31 95 
31 102 
31 114 
31 126 
31 130 
31 136 
31 139 
31 146 
31 152 
32 33 
32 34 
32 35 
32 36 
32 37 
32 38 
32 39 
32 40 
32 41 
32 42 
32 44 
32 50 
32 55 
32 57 
32 66 
32 67 
32 68 
32 69 
32 70 
32 71 
32 72 
32 73 
32 74 
32 75 
32 76 
32 108 
32 118 
32 127 
32 132 
32 135 
32 144 
32 149 
32 153 
32 154 
33 34 
33 35 
33 36 
33 37 
33 38 
33 39 
33 40 
33 41 
33 42 
33 45 
33 49 
33 59 
33 66 
33 67 
33 76 
33 78 
33 87 
33 88 
33 89 
33 90 
33 91 
33 92 
33 93 
33 94 
33 95 
33 110 
33 122 
33 123 
33 124 
33 125 
33 126 
33 127 
33 128 
34 35 
34 36 
34 37 
34 38 
34 39 
34 40 
34 41 
34 42 
34 47 
34 53 
34 58 
34 63 
34 68 
34 73 
34 78 
34 81 
34 87 
34 88 
34 96 
34 104 
34 105 
34 106 
34 107 
34 108 
34 109 
34 115 
34 120 
34 136 
34 141 
34 144 
34 150 
34 155 
35 36 
35 37 
35 38 
35 39 
35 40 
35 41 
35 42 
35 45 
35 48 
35 58 
35 64 
35 69 
35 74 
35 77 
35 79 
35 89 
35 97 
35 108 
35 110 
35 111 
35 112 
35 113 
35 114 
35 115 
35 120 
35 125 
35 130 
35 134 
35 143 
35 148 
35 151 
36 37 
36 38 
36 39 
36 40 
36 41 
36 42 
36 44 
36 48 
36 55 
36 59 
36 80 
36 85 
36 90 
36 93 
36 97 
36 98 
36 104 
36 116 
36 117 
36 118 
36 119 
36 120 
36 121 
36 128 
36 140 
36 143 
36 147 
36 152 
36 154 
36 155 
37 38 
37 39 
37 40 
37 41 
37 42 
37 43 
37 49 
37 60 
37 68 
37 70 
37 81 
37 82 
37 91 
37 92 
37 98 
37 99 
37 105 
37 111 
37 112 
37 116 
37 117 
37 122 
37 129 
37 130 
37 131 
37 132 
37 133 
37 134 
37 135 
37 136 
38 39 
38 40 
38 41 
38 42 
38 50 
38 51 
38 61 
38 63 
38 69 
38 72 
38 82 
38 83 
38 88 
38 93 
38 100 
38 111 
38 118 
38 122 
38 124 
38 134 
38 137 
38 138 
38 139 
38 140 
38 141 
38 142 
38 145 
38 146 
39 40 
39 41 
39 42 
39 52 
39 60 
39 62 
39 70 
39 71 
39 79 
39 90 
39 96 
39 100 
39 107 
39 114 
39 119 
39 123 
39 125 
39 129 
39 133 
39 137 
39 142 
39 143 
39 144 
39 145 
39 147 
39 149 
39 150 
40 41 
40 42 
40 46 
40 52 
40 65 
40 66 
40 75 
40 83 
40 86 
40 91 
40 102 
40 106 
40 109 
40 110 
40 115 
40 117 
40 121 
40 127 
40 131 
40 137 
40 140 
40 142 
40 148 
40 149 
40 151 
40 152 
41 42 
41 53 
41 54 
41 61 
41 65 
41 72 
41 75 
41 80 
41 85 
41 89 
41 94 
41 99 
41 103 
41 105 
41 109 
41 112 
41 119 
41 126 
41 129 
41 138 
41 146 
41 150 
41 151 
41 153 
41 154 
42 51 
42 54 
42 56 
42 64 
42 74 
42 86 
42 92 
42 95 
42 101 
42 103 
42 104 
42 107 
42 113 
42 121 
42 123 
42 128 
42 131 
42 132 
42 133 
42 139 
42 141 
42 145 
42 153 
42 155 
43 44 
43 45 
43 46 
43 47 
43 48 
43 49 
43 50 
43 51 
43 52 
43 53 
43 54 
43 55 
43 56 
43 57 
43 58 
43 59 
43 60 
43 61 
43 62 
43 63 
43 64 
43 65 
43 70 
43 81 
43 91 
43 98 
43 105 
43 111 
43 116 
43 122 
43 129 
43 130 
43 131 
43 132 
44 45 
44 46 
44 47 
44 48 
44 49 
44 50 
44 51 
44 52 
44 53 
44 54 
44 55 
44 59 
44 66 
44 67 
44 68 
44 69 
44 70 
44 71 
44 72 
44 73 
44 74 
44 75 
44 80 
44 90 
44 97 
44 104 
44 116 
44 117 
44 118 
44 119 
44 120 
44 121 
45 46 
45 47 
45 48 
45 49 
45 50 
45 51 
45 52 
45 53 
45 54 
45 64 
45 66 
45 74 
45 76 
45 77 
45 87 
45 88 
45 89 
45 90 
45 91 
45 92 
45 93 
45 94 
45 95 
45 108 
45 120 
45 125 
45 130 
45 134 
45 143 
45 148 
45 151 
46 47 
46 48 
46 49 
46 50 
46 51 
46 52 
46 53 
46 54 
46 57 
46 65 
46 66 
46 67 
46 77 
46 83 
46 87 
46 96 
46 97 
46 98 
46 99 
46 100 
46 101 
46 102 
46 103 
46 106 
46 110 
46 117 
46 131 
46 137 
46 149 
46 151 
46 152 
47 48 
47 49 
47 50 
47 51 
47 52 
47 53 
47 54 
47 58 
47 68 
47 71 
47 78 
47 84 
47 88 
47 95 
47 96 
47 102 
47 104 
47 105 
47 106 
47 107 
47 108 
47 109 
47 114 
47 126 
47 130 
47 136 
47 139 
47 146 
47 152 
48 49 
48 50 
48 51 
48 52 
48 53 
48 54 
48 55 
48 58 
48 69 
48 79 
48 85 
48 89 
48 93 
48 97 
48 98 
48 110 
48 111 
48 112 
48 113 
48 114 
48 115 
48 128 
48 140 
48 143 
48 147 
48 152 
48 154 
48 155 
49 50 
49 51 
49 52 
49 53 
49 54 
49 59 
49 60 
49 67 
49 68 
49 78 
49 82 
49 92 
49 99 
49 110 
49 112 
49 117 
49 122 
49 123 
49 124 
49 125 
49 126 
49 127 
49 128 
49 133 
49 134 
49 135 
49 136 
50 51 
50 52 
50 53 
50 54 
50 57 
50 61 
50 69 
50 76 
50 82 
50 88 
50 100 
50 108 
50 118 
50 122 
50 127 
50 132 
50 135 
50 137 
50 138 
50 139 
50 140 
50 141 
50 144 
50 149 
50 153 
50 154 
51 52 
51 53 
51 54 
51 56 
51 63 
51 72 
51 74 
51 83 
51 92 
51 93 
51 103 
51 107 
51 111 
51 113 
51 118 
51 121 
51 123 
51 124 
51 132 
51 134 
51 139 
51 142 
51 145 
51 146 
51 155 
52 53 
52 54 
52 60 
52 70 
52 75 
52 86 
52 91 
52 100 
52 102 
52 107 
52 109 
52 114 
52 115 
52 119 
52 121 
52 125 
52 127 
52 140 
52 142 
52 145 
52 147 
52 148 
52 149 
52 150 
53 54 
53 63 
53 65 
53 72 
53 73 
53 81 
53 85 
53 87 
53 89 
53 99 
53 109 
53 115 
53 119 
53 120 
53 126 
53 129 
53 136 
53 138 
53 141 
53 144 
53 150 
53 153 
53 155 
54 61 
54 64 
54 75 
54 80 
54 86 
54 94 
54 95 
54 101 
54 103 
54 104 
54 105 
54 112 
54 128 
54 131 
54 133 
54 141 
54 145 
54 146 
54 150 
54 151 
54 153 
54 154 
55 56 
55 57 
55 58 
55 59 
55 60 
55 61 
55 62 
55 63 
55 64 
55 65 
55 66 
55 67 
55 68 
55 69 
55 70 
55 71 
55 72 
55 73 
55 74 
55 75 
55 85 
55 93 
55 98 
55 128 
55 140 
55 143 
55 147 
55 152 
55 154 
55 155 
56 57 
56 58 
56 59 
56 60 
56 61 
56 62 
56 63 
56 64 
56 65 
56 74 
56 76 
56 77 
56 78 
56 79 
56 80 
56 81 
56 82 
56 83 
56 84 
56 85 
56 86 
56 92 
56 103 
56 107 
56 113 
56 121 
56 123 
56 132 
56 139 
56 155 
57 58 
57 59 
57 60 
57 61 
57 62 
57 63 
57 64 
57 65 
57 67 
57 76 
57 77 
57 87 
57 96 
57 97 
57 98 
57 99 
57 100 
57 101 
57 102 
57 103 
57 108 
57 118 
57 127 
57 132 
57 135 
57 144 
57 149 
57 153 
57 154 
58 59 
58 60 
58 61 
58 62 
58 63 
58 64 
58 65 
58 68 
58 69 
58 78 
58 79 
58 88 
58 89 
58 96 
58 97 
58 104 
58 105 
58 106 
58 107 
58 108 
58 109 
58 110 
58 111 
58 112 
58 113 
58 114 
58 115 
59 60 
59 61 
59 62 
59 63 
59 64 
59 65 
59 67 
59 78 
59 80 
59 90 
59 97 
59 104 
59 110 
59 116 
59 117 
59 118 
59 119 
59 120 
59 121 
59 122 
59 123 
59 124 
59 125 
59 126 
59 127 
59 128 
60 61 
60 62 
60 63 
60 64 
60 65 
60 68 
60 70 
60 82 
60 92 
60 99 
60 100 
60 107 
60 112 
60 114 
60 117 
60 119 
60 125 
60 133 
60 134 
60 135 
60 136 
60 145 
60 147 
60 149 
60 150 
61 62 
61 63 
61 64 
61 65 
61 69 
61 75 
61 80 
61 82 
61 88 
61 94 
61 100 
61 103 
61 105 
61 112 
61 122 
61 137 
61 138 
61 139 
61 140 
61 141 
61 146 
61 150 
61 151 
61 154 
62 63 
62 64 
62 65 
62 71 
62 73 
62 79 
62 84 
62 90 
62 94 
62 96 
62 101 
62 106 
62 113 
62 116 
62 123 
62 124 
62 129 
62 133 
62 135 
62 137 
62 138 
62 142 
62 143 
62 144 
62 147 
62 148 
63 64 
63 65 
63 72 
63 73 
63 81 
63 83 
63 87 
63 93 
63 111 
63 115 
63 118 
63 120 
63 124 
63 134 
63 136 
63 141 
63 142 
63 144 
63 145 
63 146 
63 150 
63 155 
64 65 
64 74 
64 77 
64 86 
64 95 
64 101 
64 104 
64 108 
64 120 
64 125 
64 128 
64 130 
64 131 
64 133 
64 134 
64 141 
64 143 
64 145 
64 148 
64 151 
64 153 
65 66 
65 72 
65 83 
65 85 
65 89 
65 99 
65 106 
65 109 
65 110 
65 117 
65 119 
65 126 
65 129 
65 131 
65 137 
65 138 
65 149 
65 151 
65 152 
65 153 
66 67 
66 68 
66 69 
66 70 
66 71 
66 72 
66 73 
66 74 
66 75 
66 76 
66 83 
66 87 
66 88 
66 89 
66 90 
66 91 
66 92 
66 93 
66 94 
66 95 
66 106 
66 110 
66 117 
66 131 
66 137 
66 149 
66 151 
66 152 
67 68 
67 69 
67 70 
67 71 
67 72 
67 73 
67 74 
67 75 
67 77 
67 78 
67 87 
67 96 
67 97 
67 98 
67 99 
67 100 
67 101 
67 102 
67 103 
67 110 
67 122 
67 123 
67 124 
67 125 
67 126 
67 127 
67 128 
68 69 
68 70 
68 71 
68 72 
68 73 
68 74 
68 75 
68 78 
68 82 
68 88 
68 92 
68 96 
68 99 
68 104 
68 105 
68 106 
68 107 
68 108 
68 109 
68 112 
68 117 
68 133 
68 134 
68 135 
68 136 
69 70 
69 71 
69 72 
69 73 
69 74 
69 75 
69 79 
69 82 
69 88 
69 89 
69 97 
69 100 
69 110 
69 111 
69 112 
69 113 
69 114 
69 115 
69 122 
69 137 
69 138 
69 139 
69 140 
69 141 
70 71 
70 72 
70 73 
70 74 
70 75 
70 81 
70 91 
70 98 
70 100 
70 105 
70 107 
70 111 
70 114 
70 116 
70 119 
70 122 
70 125 
70 129 
70 130 
70 131 
70 132 
70 145 
70 147 
70 149 
70 150 
71 72 
71 73 
71 74 
71 75 
71 79 
71 84 
71 90 
71 95 
71 96 
71 102 
71 114 
71 123 
71 126 
71 129 
71 130 
71 133 
71 136 
71 137 
71 139 
71 142 
71 143 
71 144 
71 146 
71 152 
72 73 
72 74 
72 75 
72 83 
72 85 
72 89 
72 93 
72 99 
72 109 
72 111 
72 118 
72 119 
72 124 
72 126 
72 129 
72 134 
72 138 
72 142 
72 145 
72 146 
72 153 
73 74 
73 75 
73 81 
73 84 
73 87 
73 94 
73 101 
73 106 
73 113 
73 115 
73 116 
73 120 
73 124 
73 135 
73 136 
73 138 
73 141 
73 144 
73 147 
73 148 
73 150 
73 155 
74 75 
74 77 
74 92 
74 103 
74 107 
74 108 
74 113 
74 120 
74 121 
74 123 
74 125 
74 130 
74 132 
74 134 
74 139 
74 143 
74 148 
74 151 
74 155 
75 80 
75 86 
75 91 
75 94 
75 102 
75 103 
75 105 
75 109 
75 112 
75 115 
75 121 
75 127 
75 140 
75 142 
75 146 
75 148 
75 150 
75 151 
75 154 
76 77 
76 78 
76 79 
76 80 
76 81 
76 82 
76 83 
76 84 
76 85 
76 86 
76 87 
76 88 
76 89 
76 90 
76 91 
76 92 
76 93 
76 94 
76 95 
76 108 
76 118 
76 127 
76 132 
76 135 
76 144 
76 149 
76 153 
76 154 
77 78 
77 79 
77 80 
77 81 
77 82 
77 83 
77 84 
77 85 
77 86 
77 87 
77 96 
77 97 
77 98 
77 99 
77 100 
77 101 
77 102 
77 103 
77 108 
77 120 
77 125 
77 130 
77 134 
77 143 
77 148 
77 151 
78 79 
78 80 
78 81 
78 82 
78 83 
78 84 
78 85 
78 86 
78 88 
78 96 
78 104 
78 105 
78 106 
78 107 
78 108 
78 109 
78 110 
78 122 
78 123 
78 124 
78 125 
78 126 
78 127 
78 128 
79 80 
79 81 
79 82 
79 83 
79 84 
79 85 
79 86 
79 89 
79 90 
79 96 
79 97 
79 110 
79 111 
79 112 
79 113 
79 114 
79 115 
79 123 
79 129 
79 133 
79 137 
79 142 
79 143 
79 144 
80 81 
80 82 
80 83 
80 84 
80 85 
80 86 
80 90 
80 94 
80 97 
80 103 
80 104 
80 105 
80 112 
80 116 
80 117 
80 118 
80 119 
80 120 
80 121 
80 146 
80 150 
80 151 
80 154 
81 82 
81 83 
81 84 
81 85 
81 86 
81 87 
81 91 
81 98 
81 105 
81 111 
81 115 
81 116 
81 120 
81 122 
81 129 
81 130 
81 131 
81 132 
81 136 
81 141 
81 144 
81 150 
81 155 
82 83 
82 84 
82 85 
82 86 
82 88 
82 92 
82 99 
82 100 
82 112 
82 117 
82 122 
82 133 
82 134 
82 135 
82 136 
82 137 
82 138 
82 139 
82 140 
82 141 
83 84 
83 85 
83 86 
83 93 
83 106 
83 110 
83 111 
83 117 
83 118 
83 124 
83 131 
83 134 
83 137 
83 142 
83 145 
83 146 
83 149 
83 151 
83 152 
84 85 
84 86 
84 94 
84 95 
84 101 
84 102 
84 106 
84 113 
84 114 
84 116 
84 124 
84 126 
84 130 
84 135 
84 136 
84 138 
84 139 
84 146 
84 147 
84 148 
84 152 
85 86 
85 89 
85 93 
85 98 
85 99 
85 109 
85 119 
85 126 
85 128 
85 129 
85 138 
85 140 
85 143 
85 147 
85 152 
85 153 
85 154 
85 155 
86 91 
86 95 
86 101 
86 102 
86 104 
86 109 
86 115 
86 121 
86 127 
86 128 
86 131 
86 133 
86 140 
86 141 
86 142 
86 145 
86 148 
86 153 
87 88 
87 89 
87 90 
87 91 
87 92 
87 93 
87 94 
87 95 
87 96 
87 97 
87 98 
87 99 
87 100 
87 101 
87 102 
87 103 
87 115 
87 120 
87 136 
87 141 
87 144 
87 150 
87 155 
88 89 
88 90 
88 91 
88 92 
88 93 
88 94 
88 95 
88 96 
88 100 
88 104 
88 105 
88 106 
88 107 
88 108 
88 109 
88 122 
88 137 
88 138 
88 139 
88 140 
88 141 
89 90 
89 91 
89 92 
89 93 
89 94 
89 95 
89 97 
89 99 
89 109 
89 110 
89 111 
89 112 
89 113 
89 114 
89 115 
89 119 
89 126 
89 129 
89 138 
89 153 
90 91 
90 92 
90 93 
90 94 
90 95 
90 96 
90 97 
90 104 
90 116 
90 117 
90 118 
90 119 
90 120 
90 121 
90 123 
90 129 
90 133 
90 137 
90 142 
90 143 
90 144 
91 92 
91 93 
91 94 
91 95 
91 98 
91 102 
91 105 
91 109 
91 111 
91 115 
91 116 
91 121 
91 122 
91 127 
91 129 
91 130 
91 131 
91 132 
91 140 
91 142 
91 148 
92 93 
92 94 
92 95 
92 99 
92 103 
92 107 
92 112 
92 113 
92 117 
92 121 
92 123 
92 132 
92 133 
92 134 
92 135 
92 136 
92 139 
92 155 
93 94 
93 95 
93 98 
93 111 
93 118 
93 124 
93 128 
93 134 
93 140 
93 142 
93 143 
93 145 
93 146 
93 147 
93 152 
93 154 
93 155 
94 95 
94 101 
94 103 
94 105 
94 106 
94 112 
94 113 
94 116 
94 124 
94 135 
94 138 
94 146 
94 147 
94 148 
94 150 
94 151 
94 154 
95 101 
95 102 
95 104 
95 114 
95 126 
95 128 
95 130 
95 131 
95 133 
95 136 
95 139 
95 141 
95 145 
95 146 
95 152 
95 153 
96 97 
96 98 
96 99 
96 100 
96 101 
96 102 
96 103 
96 104 
96 105 
96 106 
96 107 
96 108 
96 109 
96 123 
96 129 
96 133 
96 137 
96 142 
96 143 
96 144 
97 98 
97 99 
97 100 
97 101 
97 102 
97 103 
97 104 
97 110 
97 111 
97 112 
97 113 
97 114 
97 115 
97 116 
97 117 
97 118 
97 119 
97 120 
97 121 
98 99 
98 100 
98 101 
98 102 
98 103 
98 105 
98 111 
98 116 
98 122 
98 128 
98 129 
98 130 
98 131 
98 132 
98 140 
98 143 
98 147 
98 152 
98 154 
98 155 
99 100 
99 101 
99 102 
99 103 
99 109 
99 112 
99 117 
99 119 
99 126 
99 129 
99 133 
99 134 
99 135 
99 136 
99 138 
99 153 
100 101 
100 102 
100 103 
100 107 
100 114 
100 119 
100 122 
100 125 
100 137 
100 138 
100 139 
100 140 
100 141 
100 145 
100 147 
100 149 
100 150 
101 102 
101 103 
101 104 
101 106 
101 113 
101 116 
101 124 
101 128 
101 131 
101 133 
101 135 
101 138 
101 141 
101 145 
101 147 
101 148 
101 153 
102 103 
102 109 
102 114 
102 115 
102 121 
102 126 
102 127 
102 130 
102 136 
102 139 
102 140 
102 142 
102 146 
102 148 
102 152 
103 105 
103 107 
103 112 
103 113 
103 121 
103 123 
103 132 
103 139 
103 146 
103 150 
103 151 
103 154 
103 155 
104 105 
104 106 
104 107 
104 108 
104 109 
104 116 
104 117 
104 118 
104 119 
104 120 
104 121 
104 128 
104 131 
104 133 
104 141 
104 145 
104 153 
105 106 
105 107 
105 108 
105 109 
105 111 
105 112 
105 116 
105 122 
105 129 
105 130 
105 131 
105 132 
105 146 
105 150 
105 151 
105 154 
106 107 
106 108 
106 109 
106 110 
106 113 
106 116 
106 117 
106 124 
106 131 
106 135 
106 137 
106 138 
106 147 
106 148 
106 149 
106 151 
106 152 
107 108 
107 109 
107 113 
107 114 
107 119 
107 121 
107 123 
107 125 
107 132 
107 139 
107 145 
107 147 
107 149 
107 150 
107 155 
108 109 
108 118 
108 120 
108 125 
108 127 
108 130 
108 132 
108 134 
108 135 
108 143 
108 144 
108 148 
108 149 
108 151 
108 153 
108 154 
109 115 
109 119 
109 121 
109 126 
109 127 
109 129 
109 138 
109 140 
109 142 
109 148 
109 153 
110 111 
110 112 
110 113 
110 114 
110 115 
110 117 
110 122 
110 123 
110 124 
110 125 
110 126 
110 127 
110 128 
110 131 
110 137 
110 149 
110 151 
110 152 
111 112 
111 113 
111 114 
111 115 
111 116 
111 118 
111 122 
111 124 
111 129 
111 130 
111 131 
111 132 
111 134 
111 142 
111 145 
111 146 
112 113 
112 114 
112 115 
112 117 
112 133 
112 134 
112 135 
112 136 
112 146 
112 150 
112 151 
112 154 
113 114 
113 115 
113 116 
113 121 
113 123 
113 124 
113 132 
113 135 
113 138 
113 139 
113 147 
113 148 
113 155 
114 115 
114 119 
114 125 
114 126 
114 130 
114 136 
114 139 
114 145 
114 146 
114 147 
114 149 
114 150 
114 152 
115 120 
115 121 
115 127 
115 136 
115 140 
115 141 
115 142 
115 144 
115 148 
115 150 
115 155 
116 117 
116 118 
116 119 
116 120 
116 121 
116 122 
116 124 
116 129 
116 130 
116 131 
116 132 
116 135 
116 138 
116 147 
116 148 
117 118 
117 119 
117 120 
117 121 
117 131 
117 133 
117 134 
117 135 
117 136 
117 137 
117 149 
117 151 
117 152 
118 119 
118 120 
118 121 
118 124 
118 127 
118 132 
118 134 
118 135 
118 142 
118 144 
118 145 
118 146 
118 149 
118 153 
118 154 
119 120 
119 121 
119 125 
119 126 
119 129 
119 138 
119 145 
119 147 
119 149 
119 150 
119 153 
120 121 
120 125 
120 130 
120 134 
120 136 
120 141 
120 143 
120 144 
120 148 
120 150 
120 151 
120 155 
121 123 
121 127 
121 132 
121 139 
121 140 
121 142 
121 148 
121 155 
122 123 
122 124 
122 125 
122 126 
122 127 
122 128 
122 129 
122 130 
122 131 
122 132 
122 137 
122 138 
122 139 
122 140 
122 141 
123 124 
123 125 
123 126 
123 127 
123 128 
123 129 
123 132 
123 133 
123 137 
123 139 
123 142 
123 143 
123 144 
123 155 
124 125 
124 126 
124 127 
124 128 
124 134 
124 135 
124 138 
124 142 
124 145 
124 146 
124 147 
124 148 
125 126 
125 127 
125 128 
125 130 
125 134 
125 143 
125 145 
125 147 
125 148 
125 149 
125 150 
125 151 
126 127 
126 128 
126 129 
126 130 
126 136 
126 138 
126 139 
126 146 
126 152 
126 153 
127 128 
127 132 
127 135 
127 140 
127 142 
127 144 
127 148 
127 149 
127 153 
127 154 
128 131 
128 133 
128 140 
128 141 
128 143 
128 145 
128 147 
128 152 
128 153 
128 154 
128 155 
129 130 
129 131 
129 132 
129 133 
129 137 
129 138 
129 142 
129 143 
129 144 
129 153 
130 131 
130 132 
130 134 
130 136 
130 139 
130 143 
130 146 
130 148 
130 151 
130 152 
131 132 
131 133 
131 137 
131 141 
131 145 
131 149 
131 151 
131 152 
131 153 
132 135 
132 139 
132 144 
132 149 
132 153 
132 154 
132 155 
133 134 
133 135 
133 136 
133 137 
133 141 
133 142 
133 143 
133 144 
133 145 
133 153 
134 135 
134 136 
134 142 
134 143 
134 145 
134 146 
134 148 
134 151 
135 136 
135 138 
135 144 
135 147 
135 148 
135 149 
135 153 
135 154 
136 139 
136 141 
136 144 
136 146 
136 150 
136 152 
136 155 
137 138 
137 139 
137 140 
137 141 
137 142 
137 143 
137 144 
137 149 
137 151 
137 152 
138 139 
138 140 
138 141 
138 147 
138 148 
138 153 
139 140 
139 141 
139 146 
139 152 
139 155 
140 141 
140 142 
140 143 
140 147 
140 148 
140 152 
140 154 
140 155 
141 144 
141 145 
141 150 
141 153 
141 155 
142 143 
142 144 
142 145 
142 146 
142 148 
143 144 
143 147 
143 148 
143 151 
143 152 
143 154 
143 155 
144 149 
144 150 
144 153 
144 154 
144 155 
145 146 
145 147 
145 149 
145 150 
145 153 
146 150 
146 151 
146 152 
146 154 
147 148 
147 149 
147 150 
147 152 
147 154 
147 155 
148 151 
149 150 
149 151 
149 152 
149 153 
149 154 
150 151 
150 154 
150 155 
151 152 
151 154 
152 154 
152 155 
153 154 
154 155 
